542 5
10 10 10 10 10 

0 0 0 0 0 0 4 2 54 66 118 
0 0 0 0 0 0 1 3 
5 1 1 1 1 1 2 8 4 
4 5 6 2 3 4 1 5 
1 3 4 10 6 6 1 6 
4 5 4 5 5 5 1 7 
4 4 3 5 4 8 2 12 9 
5 3 7 7 4 4 1 9 
7 4 6 6 5 8 1 10 
2 7 7 4 5 3 1 11 
5 3 5 3 5 8 1 13 
4 6 6 8 7 6 1 13 
7 6 6 8 8 7 1 14 
1 6 9 10 1 8 1 15 
8 7 5 3 5 2 2 17 16 
8 3 5 5 9 5 2 22 18 
10 3 7 5 3 4 1 18 
3 6 7 6 4 1 1 19 
7 6 8 3 3 2 1 20 
9 4 6 3 5 4 3 27 26 21 
9 9 4 4 6 8 2 29 23 
6 4 5 4 3 8 2 29 24 
4 2 5 5 9 1 1 24 
8 5 3 4 6 5 1 25 
8 8 5 3 8 3 2 30 28 
9 9 5 4 8 6 2 36 28 
1 5 9 5 4 3 1 29 
7 6 4 3 7 5 1 31 
6 2 6 4 7 9 1 31 
2 3 2 2 3 3 2 36 33 
4 6 5 8 7 4 1 32 
8 6 6 7 5 3 1 33 
10 6 4 3 4 4 1 34 
4 4 6 7 4 6 3 37 35 323 
2 3 4 9 3 8 2 42 38 
9 6 4 6 7 8 2 39 37 
2 8 2 7 9 6 2 42 40 
5 5 5 7 2 7 1 39 
4 6 3 4 1 6 1 40 
9 7 6 7 6 6 1 41 
5 5 3 4 6 2 2 47 43 
9 6 5 2 4 4 2 47 44 
6 6 6 3 4 5 1 44 
4 9 5 4 5 1 1 45 
5 3 5 6 6 3 1 46 
10 6 6 5 6 4 1 48 
7 3 5 3 5 5 1 48 
7 4 4 6 3 3 1 49 
9 5 3 2 4 6 2 52 50 
10 3 3 5 4 6 1 51 
2 3 6 6 8 8 1 53 
10 5 4 7 3 8 1 53 
0 0 0 0 0 0 1 542 
0 0 0 0 0 0 3 55 60 61 
9 0 0 1 0 0 2 64 56 
7 0 0 3 0 0 1 57 
5 0 0 5 0 0 1 58 
8 0 0 3 0 0 1 59 
7 0 0 8 0 0 1 62 
8 0 0 6 0 0 1 62 
1 0 0 7 0 0 1 62 
8 0 0 4 0 0 2 63 481 
4 0 0 7 0 0 1 65 
6 0 0 6 0 0 1 65 
0 0 0 0 0 0 4 170 212 254 266 
0 0 0 0 0 0 1 67 
1 2 1 2 1 2 2 72 68 
8 5 5 4 3 2 1 69 
1 5 9 3 4 3 1 70 
5 6 5 10 4 6 1 71 
9 2 5 4 9 8 2 76 73 
8 4 5 7 7 7 1 73 
2 1 7 5 5 4 1 74 
7 4 7 4 9 7 1 75 
1 7 4 4 3 1 1 77 
9 2 5 7 5 8 1 77 
7 7 2 5 6 4 1 78 
4 5 5 5 4 6 2 81 79 
4 4 6 6 6 8 1 80 
8 2 7 2 6 4 2 89 82 
3 2 2 5 6 10 1 82 
9 5 4 10 7 3 1 83 
9 3 1 5 6 10 1 84 
10 5 7 4 6 5 3 91 90 85 
2 6 3 6 5 8 2 96 86 
6 7 6 2 6 3 1 87 
5 2 7 7 2 4 1 88 
1 3 9 4 8 7 2 94 92 
1 7 5 4 3 3 2 94 92 
6 6 5 8 7 5 1 92 
2 6 5 9 4 8 2 96 95 
7 7 5 3 2 3 1 93 
2 4 5 5 4 4 1 95 
4 6 6 7 6 3 2 102 98 
1 8 8 2 5 6 1 97 
8 4 6 2 3 5 1 97 
3 5 4 4 3 2 1 98 
9 7 2 5 7 5 2 100 99 
4 7 4 3 4 4 2 108 101 
5 4 6 2 7 4 2 108 104 
8 3 7 6 4 3 1 103 
7 4 4 7 4 5 2 103 412 
4 6 2 7 5 4 1 104 
2 6 2 7 2 5 1 105 
4 2 4 3 3 4 2 113 106 
3 10 6 5 7 3 1 107 
7 7 6 5 5 8 1 109 
4 7 1 5 7 6 1 109 
4 8 6 3 4 10 1 110 
6 6 8 4 3 3 1 111 
4 6 2 4 5 3 1 112 
9 5 7 8 6 5 2 116 114 
3 5 9 3 5 8 2 116 115 
7 7 2 6 5 3 1 115 
7 4 2 5 5 4 1 117 
6 4 9 7 7 4 1 117 
0 0 0 0 0 0 1 542 
0 0 0 0 0 0 1 119 
5 1 1 1 2 1 1 120 
9 9 3 1 2 4 2 123 121 
10 7 4 10 3 4 1 122 
4 4 6 7 8 5 1 124 
3 3 9 4 6 2 1 124 
10 3 3 2 8 8 2 127 125 
5 6 3 5 4 9 1 126 
9 6 6 4 5 7 1 128 
8 5 4 6 7 9 2 128 260 
8 4 4 4 8 7 1 129 
6 8 4 6 5 8 1 130 
9 4 6 2 6 3 1 131 
8 4 3 6 3 3 2 133 132 
8 3 9 6 6 8 2 136 134 
7 4 6 7 2 2 1 134 
10 4 3 5 6 6 1 135 
9 2 5 7 3 4 1 137 
8 5 7 8 3 3 1 137 
8 8 8 5 4 8 2 140 138 
9 4 5 6 6 6 2 141 139 
9 8 5 4 8 7 2 144 143 
2 7 9 10 3 10 2 144 143 
2 5 3 4 9 5 1 142 
2 6 6 3 10 4 1 143 
2 5 6 8 4 9 2 146 145 
8 7 3 6 7 5 1 146 
8 7 5 8 8 2 2 149 148 
2 2 4 3 4 6 1 147 
5 5 6 4 2 5 1 148 
2 8 6 5 4 3 1 150 
3 6 5 1 5 7 1 150 
3 6 6 6 3 5 1 151 
6 5 6 3 3 3 2 153 152 
8 5 8 9 8 3 2 157 154 
4 3 9 4 2 4 2 157 156 
9 5 4 4 8 6 1 155 
8 3 3 3 5 4 1 156 
6 2 4 6 3 3 1 158 
8 3 1 7 5 2 1 158 
8 4 6 5 8 3 2 163 159 
5 8 2 3 6 3 1 160 
4 4 7 7 4 4 1 161 
8 3 5 7 6 4 1 162 
9 2 5 5 10 6 1 164 
5 7 5 4 3 2 1 164 
5 4 6 4 1 5 1 165 
4 7 5 3 3 3 2 168 166 
8 5 4 5 3 7 1 167 
9 7 3 4 5 7 1 169 
4 7 4 3 3 6 1 169 
0 0 0 0 0 0 1 542 
0 0 0 0 0 0 2 171 172 
3 2 1 0 1 3 2 175 173 
5 4 4 0 5 8 1 173 
3 6 6 0 5 3 1 174 
1 6 8 0 3 9 1 176 
6 4 5 0 6 4 1 176 
9 8 6 0 6 4 1 177 
1 1 8 0 6 6 1 178 
9 6 7 0 10 8 1 179 
9 7 4 0 4 4 2 182 180 
7 10 3 0 7 5 1 181 
5 4 4 0 7 3 1 183 
6 6 4 0 4 5 1 183 
9 5 2 0 6 5 1 184 
5 4 4 0 2 5 1 185 
2 4 6 0 8 8 1 186 
10 4 4 0 7 2 1 187 
3 8 5 0 8 2 3 191 189 188 
8 8 6 0 6 3 2 192 190 
2 7 5 0 4 5 2 193 192 
2 3 3 0 5 3 1 193 
1 3 3 0 6 4 1 192 
2 3 6 0 7 4 1 194 
7 5 3 0 3 2 1 194 
10 7 7 0 5 6 1 195 
9 1 6 0 4 5 2 198 196 
6 1 6 0 8 10 1 197 
10 6 8 0 5 6 1 199 
3 4 6 0 4 4 1 199 
3 4 6 0 6 2 2 201 200 
3 7 4 0 6 3 3 203 202 516 
5 4 3 0 4 4 1 202 
4 3 7 0 2 5 2 206 204 
7 4 2 0 2 10 2 206 205 
5 4 5 0 2 7 1 205 
4 8 4 0 5 3 1 207 
2 6 4 0 4 4 1 207 
5 7 6 0 4 8 1 208 
4 5 6 0 2 7 1 209 
9 8 6 0 6 6 1 210 
3 3 7 0 5 5 1 211 
0 0 0 0 0 0 1 542 
0 0 0 0 0 0 3 213 222 230 
4 0 1 1 3 2 1 214 
5 0 5 4 9 2 1 215 
9 0 4 3 3 8 1 216 
5 0 5 5 4 6 2 217 290 
6 0 3 2 6 4 2 227 218 
2 0 7 3 4 5 1 219 
4 0 7 8 5 5 1 220 
8 0 4 2 8 7 1 221 
8 0 3 2 7 8 1 223 
3 0 5 8 10 4 1 223 
6 0 6 8 7 9 1 224 
7 0 7 9 1 3 2 244 225 
5 0 6 4 3 4 1 226 
1 0 4 8 7 5 2 252 228 
2 0 7 5 5 3 2 252 228 
1 0 4 5 10 10 2 242 229 
7 0 2 6 7 6 2 251 231 
7 0 7 4 8 5 2 242 231 
3 0 3 8 3 4 1 232 
6 0 7 5 4 2 1 233 
5 0 3 5 4 8 1 234 
1 0 4 5 6 4 2 248 235 
4 0 4 5 5 6 3 250 249 236 
2 0 5 6 3 6 1 237 
2 0 3 7 7 5 1 238 
10 0 8 7 3 6 1 239 
10 0 2 4 10 5 1 240 
1 0 7 6 3 3 1 241 
2 0 5 3 1 3 1 243 
6 0 5 8 3 7 1 243 
8 0 5 6 3 6 1 245 
5 0 3 3 3 6 2 248 247 
5 0 10 4 4 4 1 246 
9 0 4 4 3 5 1 247 
2 0 2 6 5 3 1 253 
1 0 5 2 3 3 1 253 
3 0 5 4 6 7 1 253 
1 0 9 5 6 2 1 253 
4 0 9 7 4 5 1 253 
2 0 5 3 4 4 1 253 
0 0 0 0 0 0 1 542 
0 0 0 0 0 0 3 255 256 258 
5 0 0 0 1 0 2 257 377 
7 0 0 0 8 0 2 264 260 
3 0 0 0 6 0 1 259 
3 0 0 0 3 0 2 264 261 
4 0 0 0 4 0 1 260 
4 0 0 0 5 0 1 261 
1 0 0 0 6 0 1 262 
9 0 0 0 6 0 1 263 
1 0 0 0 7 0 1 265 
10 0 0 0 4 0 1 265 
0 0 0 0 0 0 4 308 340 372 384 
0 0 0 0 0 0 2 267 268 
9 0 1 1 1 1 2 271 270 
7 0 5 4 4 4 1 269 
4 0 5 10 4 4 1 270 
7 0 7 6 4 8 1 272 
9 0 5 3 7 5 1 272 
7 0 5 4 9 2 1 273 
5 0 3 3 3 4 1 274 
5 0 6 4 5 3 1 275 
7 0 5 6 4 10 2 278 276 
5 0 4 8 4 6 1 277 
8 0 7 8 5 2 1 279 
1 0 5 6 3 2 1 279 
10 0 2 7 3 7 1 280 
2 0 4 4 5 5 1 281 
2 0 4 3 6 4 1 282 
10 0 7 3 3 5 1 283 
8 0 4 5 7 6 3 286 285 284 
1 0 5 4 3 7 2 290 288 
2 0 4 5 3 8 1 287 
5 0 3 7 3 8 2 290 289 
5 0 4 3 5 6 1 288 
5 0 8 8 6 4 2 289 329 
9 0 9 8 3 5 2 294 291 
9 0 3 3 6 2 2 294 291 
7 0 5 4 8 2 1 292 
7 0 4 4 4 4 1 293 
2 0 4 4 6 8 2 296 295 
4 0 7 7 7 4 1 295 
10 0 7 9 6 6 2 300 297 
9 0 3 6 2 3 3 302 300 299 
3 0 5 4 9 3 1 298 
7 0 5 7 7 10 2 302 299 
3 0 6 5 6 4 1 301 
5 0 4 5 4 5 1 301 
3 0 4 4 5 10 1 303 
8 0 8 1 5 3 1 303 
7 0 4 1 7 6 1 304 
9 0 6 4 3 3 1 305 
10 0 8 5 6 6 1 306 
3 0 5 7 9 5 1 307 
0 0 0 0 0 0 1 542 
0 0 0 0 0 0 2 309 318 
2 0 1 0 1 2 1 310 
4 0 5 0 4 5 1 311 
9 0 2 0 5 5 1 312 
6 0 6 0 6 4 1 313 
6 0 8 0 1 4 2 320 314 
4 0 2 0 7 6 1 315 
9 0 4 0 8 4 1 316 
10 0 3 0 2 5 3 322 321 317 
3 0 5 0 5 9 2 324 319 
10 0 5 0 5 4 5 328 326 324 323 528 
8 0 3 0 2 4 3 328 326 323 
8 0 5 0 5 5 2 328 323 
2 0 5 0 8 4 2 328 325 
10 0 4 0 4 4 2 328 327 
6 0 5 0 6 5 1 325 
6 0 6 0 2 9 1 325 
3 0 7 0 9 3 1 327 
3 0 4 0 4 10 1 327 
5 0 6 0 6 6 1 329 
6 0 7 0 6 4 1 329 
4 0 6 0 6 6 1 330 
6 0 5 0 4 5 2 334 331 
4 0 3 0 4 5 1 332 
6 0 9 0 6 2 1 333 
6 0 3 0 6 4 1 335 
6 0 6 0 6 5 1 335 
9 0 9 0 4 6 1 336 
8 0 5 0 4 4 1 337 
9 0 5 0 6 5 1 338 
7 0 6 0 8 6 1 339 
0 0 0 0 0 0 1 542 
0 0 0 0 0 0 6 341 366 367 368 369 370 
2 1 0 1 1 0 2 365 342 
2 4 0 2 5 0 2 364 343 
10 5 0 6 3 0 1 344 
9 5 0 1 3 0 1 345 
9 4 0 5 7 0 1 346 
9 5 0 5 4 0 1 347 
8 4 0 5 8 0 1 348 
6 10 0 5 4 0 2 363 349 
2 3 0 7 3 0 1 350 
4 6 0 8 4 0 1 351 
5 4 0 7 4 0 1 352 
5 4 0 3 3 0 1 353 
6 8 0 5 8 0 1 354 
3 9 0 8 8 0 1 355 
8 5 0 5 7 0 1 356 
1 3 0 4 5 0 1 357 
6 5 0 5 6 0 2 358 373 
5 6 0 4 6 0 1 359 
7 4 0 5 4 0 1 360 
2 7 0 5 6 0 1 361 
7 6 0 8 5 0 1 362 
2 5 0 8 3 0 1 371 
6 6 0 4 5 0 1 371 
1 3 0 6 5 0 1 371 
4 4 0 3 2 0 1 371 
10 3 0 8 3 0 1 371 
3 9 0 4 5 0 1 371 
10 5 0 7 7 0 1 371 
2 3 0 3 6 0 1 371 
6 4 0 3 10 0 1 371 
0 0 0 0 0 0 1 542 
0 0 0 0 0 0 3 373 376 441 
10 0 0 0 0 2 1 374 
6 0 0 0 0 7 1 375 
8 0 0 0 0 4 2 379 377 
4 0 0 0 0 5 2 379 378 
7 0 0 0 0 10 1 378 
2 0 0 0 0 2 2 382 380 
2 0 0 0 0 3 2 382 380 
5 0 0 0 0 3 1 381 
3 0 0 0 0 10 1 383 
3 0 0 0 0 4 1 383 
0 0 0 0 0 0 4 416 438 450 472 
0 0 0 0 0 0 3 385 413 414 
9 2 0 0 2 2 1 386 
8 8 0 0 5 4 1 387 
4 2 0 0 6 10 3 412 411 388 
6 3 0 0 6 2 1 389 
8 5 0 0 5 4 2 410 390 
7 4 0 0 6 6 3 409 408 391 
4 5 0 0 2 10 1 392 
6 5 0 0 7 3 1 393 
5 5 0 0 6 3 1 394 
1 3 0 0 6 3 1 395 
5 3 0 0 6 7 1 396 
10 2 0 0 3 3 2 407 397 
6 6 0 0 5 5 1 398 
2 3 0 0 3 4 2 399 419 
6 3 0 0 5 4 1 400 
10 5 0 0 6 7 1 401 
6 8 0 0 5 4 1 402 
6 10 0 0 5 5 1 403 
9 3 0 0 10 3 1 404 
10 7 0 0 1 4 1 405 
4 6 0 0 2 4 1 406 
9 3 0 0 6 5 1 415 
4 4 0 0 4 10 1 415 
7 3 0 0 6 3 1 415 
4 5 0 0 6 6 1 415 
5 9 0 0 4 2 1 415 
8 10 0 0 4 6 1 415 
2 7 0 0 4 6 1 415 
8 5 0 0 7 6 1 415 
6 6 0 0 7 9 1 415 
0 0 0 0 0 0 1 542 
0 0 0 0 0 0 3 417 427 431 
10 0 0 1 0 1 1 418 
10 0 0 5 0 6 1 419 
5 0 0 4 0 2 2 420 502 
10 0 0 7 0 5 2 435 421 
1 0 0 6 0 4 1 422 
2 0 0 2 0 3 1 423 
8 0 0 7 0 4 2 434 424 
6 0 0 8 0 7 1 425 
5 0 0 2 0 6 1 426 
8 0 0 6 0 3 1 428 
2 0 0 5 0 6 2 436 430 
5 0 0 6 0 8 1 429 
1 0 0 6 0 7 1 430 
2 0 0 6 0 5 1 432 
5 0 0 6 0 9 1 432 
6 0 0 9 0 3 1 433 
6 0 0 1 0 3 1 437 
9 0 0 4 0 7 1 437 
8 0 0 5 0 4 1 437 
6 0 0 4 0 7 1 437 
0 0 0 0 0 0 1 542 
0 0 0 0 0 0 1 439 
9 0 0 1 0 0 1 440 
10 0 0 3 0 0 2 443 441 
1 0 0 8 0 0 2 445 442 
5 0 0 6 0 0 2 448 444 
7 0 0 9 0 0 1 444 
5 0 0 4 0 0 1 446 
2 0 0 7 0 0 2 446 528 
1 0 0 7 0 0 1 447 
7 0 0 1 0 0 1 449 
6 0 0 4 0 0 1 449 
0 0 0 0 0 0 4 494 506 518 530 
0 0 0 0 0 0 2 451 454 
6 0 1 0 2 0 1 452 
10 0 4 0 5 0 2 470 453 
5 0 2 0 10 0 3 469 458 455 
8 0 9 0 7 0 2 458 457 
10 0 7 0 3 0 1 456 
4 0 3 0 5 0 1 457 
4 0 2 0 4 0 1 459 
3 0 6 0 4 0 1 459 
6 0 10 0 2 0 1 460 
6 0 7 0 2 0 1 461 
7 0 8 0 7 0 1 462 
9 0 3 0 8 0 2 468 463 
10 0 4 0 5 0 1 464 
7 0 3 0 5 0 1 465 
2 0 7 0 4 0 1 466 
5 0 6 0 4 0 1 467 
8 0 7 0 7 0 1 471 
3 0 4 0 6 0 1 471 
2 0 3 0 5 0 1 471 
8 0 4 0 5 0 1 471 
0 0 0 0 0 0 1 542 
0 0 0 0 0 0 2 473 478 
2 0 0 0 1 1 1 474 
6 0 0 0 7 4 1 475 
6 0 0 0 6 3 1 476 
5 0 0 0 9 7 2 481 477 
2 0 0 0 3 6 1 479 
1 0 0 0 6 8 1 479 
1 0 0 0 4 4 1 480 
9 0 0 0 7 9 2 488 482 
10 0 0 0 6 4 1 482 
2 0 0 0 5 4 1 483 
3 0 0 0 5 7 2 486 484 
9 0 0 0 3 6 1 485 
7 0 0 0 3 5 2 492 487 
3 0 0 0 5 8 2 492 490 
6 0 0 0 7 4 1 489 
3 0 0 0 7 2 1 489 
1 0 0 0 5 3 1 490 
4 0 0 0 1 5 1 491 
3 0 0 0 4 1 1 493 
1 0 0 0 6 9 1 493 
0 0 0 0 0 0 1 542 
0 0 0 0 0 0 1 495 
2 1 0 0 0 0 1 496 
10 6 0 0 0 0 2 501 497 
10 8 0 0 0 0 3 504 500 498 
5 8 0 0 0 0 1 499 
9 4 0 0 0 0 1 502 
4 9 0 0 0 0 1 502 
10 2 0 0 0 0 1 502 
4 5 0 0 0 0 1 503 
2 2 0 0 0 0 1 505 
1 5 0 0 0 0 1 505 
0 0 0 0 0 0 1 542 
0 0 0 0 0 0 1 507 
5 0 0 0 1 0 2 509 508 
2 0 0 0 8 0 2 511 510 
6 0 0 0 3 0 2 511 510 
7 0 0 0 5 0 1 512 
7 0 0 0 4 0 1 512 
4 0 0 0 4 0 2 515 513 
9 0 0 0 8 0 1 514 
2 0 0 0 5 0 1 516 
9 0 0 0 4 0 1 516 
4 0 0 0 8 0 1 517 
0 0 0 0 0 0 1 542 
0 0 0 0 0 0 1 519 
5 0 0 0 1 0 2 528 520 
7 0 0 0 4 0 1 521 
7 0 0 0 4 0 1 522 
4 0 0 0 3 0 2 525 523 
6 0 0 0 7 0 2 526 524 
4 0 0 0 6 0 1 527 
8 0 0 0 7 0 1 526 
4 0 0 0 6 0 1 529 
6 0 0 0 7 0 1 529 
7 0 0 0 5 0 1 529 
0 0 0 0 0 0 1 542 
0 0 0 0 0 0 2 531 532 
3 0 1 0 0 0 2 534 533 
1 0 5 0 0 0 2 534 533 
9 0 4 0 0 0 2 538 535 
4 0 7 0 0 0 2 538 535 
9 0 4 0 0 0 1 536 
3 0 1 0 0 0 1 537 
2 0 5 0 0 0 1 539 
6 0 9 0 0 0 1 539 
7 0 6 0 0 0 1 540 
5 0 8 0 0 0 1 541 
0 0 0 0 0 0 1 542 
0 0 0 0 0 0 0 
